words_hard_train/4744.qaiger
aag 123 16 0 1 107
2
4
8
10
16
24
30
36
44
48
60
72
84
96
108
148
246
6 2 4
12 9 11
14 13 4
18 15 17
20 19 4
22 7 21
26 22 25
28 27 4
32 29 31
34 33 4
38 35 36
40 34 37
42 39 41
46 10 44
50 47 48
52 11 45
54 53 8
56 50 54
58 57 47
62 17 61
64 16 60
66 63 65
68 59 66
70 69 65
74 3 73
76 2 72
78 75 77
80 71 78
82 81 77
86 25 85
88 24 84
90 87 89
92 83 90
94 93 89
98 31 97
100 30 96
102 99 101
104 95 102
106 105 101
110 37 109
112 36 108
114 111 113
116 106 115
118 107 114
120 117 119
122 42 121
124 43 120
126 123 125
128 28 30
130 129 33
132 94 103
134 133 105
136 130 134
138 126 137
140 127 136
142 139 141
144 36 4
146 145 35
150 147 148
152 146 149
154 151 153
156 119 113
158 154 157
160 155 156
162 159 161
164 163 125
166 162 124
168 165 167
170 21 3
172 20 2
174 171 173
176 58 67
178 177 69
180 14 16
182 181 19
184 45 5
186 185 8
188 10 4
190 186 189
192 10 45
194 191 193
196 195 57
198 182 196
200 179 199
202 183 197
204 201 203
206 70 79
208 207 81
210 204 208
212 175 211
214 205 209
216 213 215
218 23 24
220 219 27
222 82 91
224 223 93
226 220 224
228 217 227
230 221 225
232 229 231
234 131 135
236 235 137
238 233 237
240 232 236
242 239 241
244 169 242
246 143 244
i0 1 x2[3]
i1 1 x2[7]
i2 1 x2[0]
i3 1 x2[1]
i4 1 x2[2]
i5 1 x2[4]
i6 1 x2[5]
i7 1 x2[6]
i8 2 y1[1]
i9 2 y1[0]
i10 2 y1[2]
i11 2 y1[3]
i12 2 y1[4]
i13 2 y1[5]
i14 2 y1[6]
i15 2 y1[7]
o0 bv[0]
c
simplified
  >=
    add
      abs
        1 x2
      add
        1 x2
        2 y1
    -160
