words_hard_train/4744.qaiger.qdimacs
p cnf 123 322
a 1 2 4 5 8 12 15 18 0
e 3 6 7 9 10 11 13 14 16 17 19 20 21 22 23 24 25 26 27 28 29 30 31 32 33 34 35 36 37 38 39 40 41 42 43 44 45 46 47 48 49 50 51 52 53 54 55 56 57 58 59 60 61 62 63 64 65 66 67 68 69 70 71 72 73 74 75 76 77 78 79 80 81 82 83 84 85 86 87 88 89 90 91 92 93 94 95 96 97 98 99 100 101 102 103 104 105 106 107 108 109 110 111 112 113 114 115 116 117 118 119 120 121 122 123 0
-1 -2 3 0
1 -3 0
2 -3 0
4 5 6 0
-4 -6 0
-5 -6 0
6 -2 7 0
-6 -7 0
2 -7 0
7 8 9 0
-7 -9 0
-8 -9 0
9 -2 10 0
-9 -10 0
2 -10 0
3 10 11 0
-3 -11 0
-10 -11 0
-11 12 13 0
11 -13 0
-12 -13 0
13 -2 14 0
-13 -14 0
2 -14 0
14 15 16 0
-14 -16 0
-15 -16 0
16 -2 17 0
-16 -17 0
2 -17 0
17 -18 19 0
-17 -19 0
18 -19 0
-17 18 20 0
17 -20 0
-18 -20 0
19 20 21 0
-19 -21 0
-20 -21 0
-5 -22 23 0
5 -23 0
22 -23 0
23 -24 25 0
-23 -25 0
24 -25 0
5 22 26 0
-5 -26 0
-22 -26 0
26 -4 27 0
-26 -27 0
4 -27 0
-25 -27 28 0
25 -28 0
27 -28 0
28 23 29 0
-28 -29 0
-23 -29 0
8 30 31 0
-8 -31 0
-30 -31 0
-8 -30 32 0
8 -32 0
30 -32 0
31 32 33 0
-31 -33 0
-32 -33 0
29 -33 34 0
-29 -34 0
33 -34 0
34 32 35 0
-34 -35 0
-32 -35 0
1 36 37 0
-1 -37 0
-36 -37 0
-1 -36 38 0
1 -38 0
36 -38 0
37 38 39 0
-37 -39 0
-38 -39 0
35 -39 40 0
-35 -40 0
39 -40 0
40 38 41 0
-40 -41 0
-38 -41 0
12 42 43 0
-12 -43 0
-42 -43 0
-12 -42 44 0
12 -44 0
42 -44 0
43 44 45 0
-43 -45 0
-44 -45 0
41 -45 46 0
-41 -46 0
45 -46 0
46 44 47 0
-46 -47 0
-44 -47 0
15 48 49 0
-15 -49 0
-48 -49 0
-15 -48 50 0
15 -50 0
48 -50 0
49 50 51 0
-49 -51 0
-50 -51 0
47 -51 52 0
-47 -52 0
51 -52 0
52 50 53 0
-52 -53 0
-50 -53 0
18 54 55 0
-18 -55 0
-54 -55 0
-18 -54 56 0
18 -56 0
54 -56 0
55 56 57 0
-55 -57 0
-56 -57 0
-53 57 58 0
53 -58 0
-57 -58 0
53 -57 59 0
-53 -59 0
57 -59 0
58 59 60 0
-58 -60 0
-59 -60 0
-21 60 61 0
21 -61 0
-60 -61 0
21 -60 62 0
-21 -62 0
60 -62 0
61 62 63 0
-61 -63 0
-62 -63 0
-14 -15 64 0
14 -64 0
15 -64 0
64 16 65 0
-64 -65 0
-16 -65 0
-47 51 66 0
47 -66 0
-51 -66 0
66 52 67 0
-66 -67 0
-52 -67 0
-65 -67 68 0
65 -68 0
67 -68 0
-63 68 69 0
63 -69 0
-68 -69 0
63 -68 70 0
-63 -70 0
68 -70 0
69 70 71 0
-69 -71 0
-70 -71 0
-18 -2 72 0
18 -72 0
2 -72 0
72 17 73 0
-72 -73 0
-17 -73 0
73 -74 75 0
-73 -75 0
74 -75 0
-73 74 76 0
73 -76 0
-74 -76 0
75 76 77 0
-75 -77 0
-76 -77 0
59 56 78 0
-59 -78 0
-56 -78 0
-77 78 79 0
77 -79 0
-78 -79 0
77 -78 80 0
-77 -80 0
78 -80 0
79 80 81 0
-79 -81 0
-80 -81 0
81 62 82 0
-81 -82 0
-62 -82 0
-81 -62 83 0
81 -83 0
62 -83 0
82 83 84 0
-82 -84 0
-83 -84 0
10 1 85 0
-10 -85 0
-1 -85 0
-10 -1 86 0
10 -86 0
1 -86 0
85 86 87 0
-85 -87 0
-86 -87 0
-29 33 88 0
29 -88 0
-33 -88 0
88 34 89 0
-88 -89 0
-34 -89 0
-7 -8 90 0
7 -90 0
8 -90 0
90 9 91 0
-90 -91 0
-9 -91 0
22 2 92 0
-22 -92 0
-2 -92 0
92 -4 93 0
-92 -93 0
4 -93 0
-5 -2 94 0
5 -94 0
2 -94 0
-93 94 95 0
93 -95 0
-94 -95 0
-5 22 96 0
5 -96 0
-22 -96 0
95 96 97 0
-95 -97 0
-96 -97 0
97 28 98 0
-97 -98 0
-28 -98 0
-91 -98 99 0
91 -99 0
98 -99 0
89 99 100 0
-89 -100 0
-99 -100 0
91 98 101 0
-91 -101 0
-98 -101 0
100 101 102 0
-100 -102 0
-101 -102 0
-35 39 103 0
35 -103 0
-39 -103 0
103 40 104 0
-103 -104 0
-40 -104 0
-102 -104 105 0
102 -105 0
104 -105 0
87 105 106 0
-87 -106 0
-105 -106 0
102 104 107 0
-102 -107 0
-104 -107 0
106 107 108 0
-106 -108 0
-107 -108 0
11 -12 109 0
-11 -109 0
12 -109 0
109 13 110 0
-109 -110 0
-13 -110 0
-41 45 111 0
41 -111 0
-45 -111 0
111 46 112 0
-111 -112 0
-46 -112 0
-110 -112 113 0
110 -113 0
112 -113 0
108 113 114 0
-108 -114 0
-113 -114 0
110 112 115 0
-110 -115 0
-112 -115 0
114 115 116 0
-114 -116 0
-115 -116 0
65 67 117 0
-65 -117 0
-67 -117 0
117 68 118 0
-117 -118 0
-68 -118 0
116 118 119 0
-116 -119 0
-118 -119 0
-116 -118 120 0
116 -120 0
118 -120 0
119 120 121 0
-119 -121 0
-120 -121 0
84 -121 122 0
-84 -122 0
121 -122 0
71 -122 123 0
-71 -123 0
122 -123 0
123 0
